p tw 81 968
1 13
1 6
1 18
1 30
1 42
1 54
1 66
1 78
1 4
1 16
1 28
1 40
1 52
1 64
1 76
1 80
1 2
1 3
1 14
1 25
1 36
1 47
1 58
1 69
2 5
2 17
2 29
2 41
2 53
2 65
2 77
2 13
2 24
2 35
2 46
2 57
2 68
2 79
2 81
2 3
2 14
2 25
2 36
2 47
2 58
2 69
13 6
13 18
13 30
13 42
13 54
13 66
13 78
13 3
13 24
13 35
13 46
13 57
13 68
13 79
13 81
13 5
13 15
13 26
13 37
13 48
13 59
13 70
24 7
24 19
24 31
24 43
24 55
24 67
24 5
24 14
24 35
24 46
24 57
24 68
24 79
24 81
24 6
24 17
24 27
24 38
24 49
24 60
24 71
35 8
35 20
35 32
35 44
35 56
35 6
35 15
35 25
35 46
35 57
35 68
35 79
35 81
35 7
35 18
35 29
35 39
35 50
35 61
35 72
46 9
46 21
46 33
46 45
46 7
46 17
46 26
46 36
46 57
46 68
46 79
46 81
46 8
46 19
46 30
46 41
46 51
46 62
46 73
57 10
57 22
57 34
57 8
57 18
57 27
57 37
57 47
57 68
57 79
57 81
57 9
57 20
57 31
57 42
57 53
57 63
57 74
68 11
68 23
68 9
68 19
68 29
68 38
68 48
68 58
68 79
68 81
68 10
68 21
68 32
68 43
68 54
68 65
68 75
79 12
79 10
79 20
79 30
79 39
79 49
79 59
79 69
79 81
79 11
79 22
79 33
79 44
79 55
79 66
79 77
81 11
81 21
81 31
81 41
81 50
81 60
81 70
81 12
81 23
81 34
81 45
81 56
81 67
81 78
3 15
3 27
3 39
3 51
3 63
3 75
3 5
3 6
3 7
3 8
3 9
3 10
3 11
3 12
3 14
3 25
3 36
3 47
3 58
3 69
4 7
4 19
4 31
4 43
4 55
4 67
4 16
4 28
4 40
4 52
4 64
4 76
4 80
4 5
4 15
4 26
4 37
4 48
4 59
4 70
5 17
5 29
5 41
5 53
5 65
5 77
5 14
5 6
5 7
5 8
5 9
5 10
5 11
5 12
5 15
5 26
5 37
5 48
5 59
5 70
6 18
6 30
6 42
6 54
6 66
6 78
6 15
6 25
6 7
6 8
6 9
6 10
6 11
6 12
6 17
6 27
6 38
6 49
6 60
6 71
7 19
7 31
7 43
7 55
7 67
7 17
7 26
7 36
7 8
7 9
7 10
7 11
7 12
7 18
7 29
7 39
7 50
7 61
7 72
8 20
8 32
8 44
8 56
8 18
8 27
8 37
8 47
8 9
8 10
8 11
8 12
8 19
8 30
8 41
8 51
8 62
8 73
9 21
9 33
9 45
9 19
9 29
9 38
9 48
9 58
9 10
9 11
9 12
9 20
9 31
9 42
9 53
9 63
9 74
10 22
10 34
10 20
10 30
10 39
10 49
10 59
10 69
10 11
10 12
10 21
10 32
10 43
10 54
10 65
10 75
11 23
11 21
11 31
11 41
11 50
11 60
11 70
11 12
11 22
11 33
11 44
11 55
11 66
11 77
12 22
12 32
12 42
12 51
12 61
12 71
12 23
12 34
12 45
12 56
12 67
12 78
14 26
14 38
14 50
14 62
14 74
14 15
14 17
14 18
14 19
14 20
14 21
14 22
14 23
14 25
14 36
14 47
14 58
14 69
15 27
15 39
15 51
15 63
15 75
15 25
15 17
15 18
15 19
15 20
15 21
15 22
15 23
15 26
15 37
15 48
15 59
15 70
16 20
16 32
16 44
16 56
16 28
16 40
16 52
16 64
16 76
16 80
16 17
16 27
16 38
16 49
16 60
16 71
17 29
17 41
17 53
17 65
17 77
17 26
17 36
17 18
17 19
17 20
17 21
17 22
17 23
17 27
17 38
17 49
17 60
17 71
18 30
18 42
18 54
18 66
18 78
18 27
18 37
18 47
18 19
18 20
18 21
18 22
18 23
18 29
18 39
18 50
18 61
18 72
19 31
19 43
19 55
19 67
19 29
19 38
19 48
19 58
19 20
19 21
19 22
19 23
19 30
19 41
19 51
19 62
19 73
20 32
20 44
20 56
20 30
20 39
20 49
20 59
20 69
20 21
20 22
20 23
20 31
20 42
20 53
20 63
20 74
21 33
21 45
21 31
21 41
21 50
21 60
21 70
21 22
21 23
21 32
21 43
21 54
21 65
21 75
22 34
22 32
22 42
22 51
22 61
22 71
22 23
22 33
22 44
22 55
22 66
22 77
23 33
23 43
23 53
23 62
23 72
23 34
23 45
23 56
23 67
23 78
25 37
25 49
25 61
25 73
25 26
25 27
25 29
25 30
25 31
25 32
25 33
25 34
25 36
25 47
25 58
25 69
26 38
26 50
26 62
26 74
26 36
26 27
26 29
26 30
26 31
26 32
26 33
26 34
26 37
26 48
26 59
26 70
27 39
27 51
27 63
27 75
27 37
27 47
27 29
27 30
27 31
27 32
27 33
27 34
27 38
27 49
27 60
27 71
28 33
28 45
28 40
28 52
28 64
28 76
28 80
28 29
28 39
28 50
28 61
28 72
29 41
29 53
29 65
29 77
29 38
29 48
29 58
29 30
29 31
29 32
29 33
29 34
29 39
29 50
29 61
29 72
30 42
30 54
30 66
30 78
30 39
30 49
30 59
30 69
30 31
30 32
30 33
30 34
30 41
30 51
30 62
30 73
31 43
31 55
31 67
31 41
31 50
31 60
31 70
31 32
31 33
31 34
31 42
31 53
31 63
31 74
32 44
32 56
32 42
32 51
32 61
32 71
32 33
32 34
32 43
32 54
32 65
32 75
33 45
33 43
33 53
33 62
33 72
33 34
33 44
33 55
33 66
33 77
34 44
34 54
34 63
34 73
34 45
34 56
34 67
34 78
36 48
36 60
36 72
36 37
36 38
36 39
36 41
36 42
36 43
36 44
36 45
36 47
36 58
36 69
37 49
37 61
37 73
37 47
37 38
37 39
37 41
37 42
37 43
37 44
37 45
37 48
37 59
37 70
38 50
38 62
38 74
38 48
38 58
38 39
38 41
38 42
38 43
38 44
38 45
38 49
38 60
38 71
39 51
39 63
39 75
39 49
39 59
39 69
39 41
39 42
39 43
39 44
39 45
39 50
39 61
39 72
40 52
40 64
40 76
40 80
40 41
40 51
40 62
40 73
41 53
41 65
41 77
41 50
41 60
41 70
41 42
41 43
41 44
41 45
41 51
41 62
41 73
42 54
42 66
42 78
42 51
42 61
42 71
42 43
42 44
42 45
42 53
42 63
42 74
43 55
43 67
43 53
43 62
43 72
43 44
43 45
43 54
43 65
43 75
44 56
44 54
44 63
44 73
44 45
44 55
44 66
44 77
45 55
45 65
45 74
45 56
45 67
45 78
47 59
47 71
47 48
47 49
47 50
47 51
47 53
47 54
47 55
47 56
47 58
47 69
48 60
48 72
48 58
48 49
48 50
48 51
48 53
48 54
48 55
48 56
48 59
48 70
49 61
49 73
49 59
49 69
49 50
49 51
49 53
49 54
49 55
49 56
49 60
49 71
50 62
50 74
50 60
50 70
50 51
50 53
50 54
50 55
50 56
50 61
50 72
51 63
51 75
51 61
51 71
51 53
51 54
51 55
51 56
51 62
51 73
52 64
52 76
52 80
52 53
52 63
52 74
53 65
53 77
53 62
53 72
53 54
53 55
53 56
53 63
53 74
54 66
54 78
54 63
54 73
54 55
54 56
54 65
54 75
55 67
55 65
55 74
55 56
55 66
55 77
56 66
56 75
56 67
56 78
58 70
58 59
58 60
58 61
58 62
58 63
58 65
58 66
58 67
58 69
59 71
59 69
59 60
59 61
59 62
59 63
59 65
59 66
59 67
59 70
60 72
60 70
60 61
60 62
60 63
60 65
60 66
60 67
60 71
61 73
61 71
61 62
61 63
61 65
61 66
61 67
61 72
62 74
62 72
62 63
62 65
62 66
62 67
62 73
63 75
63 73
63 65
63 66
63 67
63 74
64 76
64 80
64 65
64 75
65 77
65 74
65 66
65 67
65 75
66 78
66 75
66 67
66 77
67 77
67 78
69 70
69 71
69 72
69 73
69 74
69 75
69 77
69 78
70 71
70 72
70 73
70 74
70 75
70 77
70 78
71 72
71 73
71 74
71 75
71 77
71 78
72 73
72 74
72 75
72 77
72 78
73 74
73 75
73 77
73 78
74 75
74 77
74 78
75 77
75 78
76 80
76 77
77 78
